0 82 83
1 83 87
2 65 91
3 82 92
4 89 92
5 92 96
6 72 94
7 77 94
8 76 95
9 74 89
10 75 85
11 82 88
12 61 88
13 86 90
14 88 89
15 77 91
16 92 92
17 89 89
18 83 85
19 81 86
20 53 90
21 54 88
22 45 85
23 68 79
24 62 77
25 74 74
26 58 72
27 55 68
28 59 65
29 49 62
30 54 59
31 58 61
32 28 58
33 49 58
34 56 57
35 48 53
36 47 48
37 43 50
38 50 50
39 43 50
40 39 47
41 36 44
42 36 42
43 40 44
44 25 45
45 37 44
46 41 41
47 35 39
48 33 39
49 30 35
50 37 37
51 31 34
52 22 32
53 28 32
54 12 28
55 24 25
56 24 24
57 21 27
58 14 24
59 11 25
60 14 22
61 3 20
62 16 18
63 15 15
64 12 14
65 13 14
66 12 12
67 9 11
68 10 10
69 3 11
70 11 11
71 7 10
72 1 10
73 8 9
74 7 7
75 4 5
76 3 3
77 3 3
78 1 3
79 2 3
80 1 1
81 1 1

